Minimize
  - 90 y_0 - 76 y_1 - 95 y_2 - 110 y_3 - 105 y_4 - 49 y_5 - 62 y_6 - 54 y_7
   - 69 y_8 - 87 y_9 - 37 y_10 - 58 y_11 - 42 y_12 - 82 y_13 - 75 y_14
   - 52 y_15 - 60 y_16 - 56 y_18 - 88 y_19 - 28 y_20 - 42 y_21 - 93 y_22
   - 48 y_23 - 43 y_24 - 81 y_25 - 72 y_26 - 100 y_27 - 110 y_28 - 63 y_29
   - 78 y_30 - 48 y_31 - 85 y_32 - 66 y_33 - 43 y_34 - 80 y_35 - 46 y_36
   - 92 y_37 - 54 y_38 - 123 y_39 - 72 y_40 - 91 y_41 - 70 y_42 - 89 y_43
   - 12 y_44 - 65 y_45 - 99 y_46 - 12 y_47 - 107 y_48 - 120 y_49
   + 3479 Constant
Subject To
 c_0: y_21 = 1
 c_1_0: y_0 >= 1
 c_1_1: y_1 >= 1
 c_1_2: y_2 >= 1
 c_1_3: y_3 >= 1
 c_1_4: y_4 + y_27 >= 1
 c_1_5: y_5 + y_15 + y_23 >= 1
 c_1_6: y_6 >= 1
 c_1_7: y_7 + y_18 >= 1
 c_1_8: y_8 + y_45 >= 1
 c_1_9: y_9 >= 1
 c_1_10: y_10 >= 1
 c_1_11: y_11 >= 1
 c_1_12: y_12 >= 1
 c_1_13: y_13 >= 1
 c_1_14: y_14 >= 1
 c_1_15: y_5 + y_15 >= 1
 c_1_16: y_16 >= 1
 c_1_17: y_17 >= 1
 c_1_18: y_7 + y_18 >= 1
 c_1_19: y_19 >= 1
 c_1_20: y_20 >= 1
 c_1_21: y_21 >= 1
 c_1_22: y_22 >= 1
 c_1_23: y_5 + y_23 >= 1
 c_1_24: y_24 + y_34 + y_36 >= 1
 c_1_25: y_25 >= 1
 c_1_26: y_26 >= 1
 c_1_27: y_4 + y_27 >= 1
 c_1_28: y_28 + y_48 >= 1
 c_1_29: y_29 >= 1
 c_1_30: y_30 >= 1
 c_1_31: y_31 >= 1
 c_1_32: y_32 >= 1
 c_1_33: y_33 + y_42 >= 1
 c_1_34: y_24 + y_34 + y_36 >= 1
 c_1_35: y_35 >= 1
 c_1_36: y_24 + y_34 + y_36 >= 1
 c_1_37: y_37 >= 1
 c_1_38: y_38 >= 1
 c_1_39: y_39 >= 1
 c_1_40: y_40 >= 1
 c_1_41: y_41 >= 1
 c_1_42: y_33 + y_42 >= 1
 c_1_43: y_43 >= 1
 c_1_44: y_44 + y_47 >= 1
 c_1_45: y_8 + y_45 >= 1
 c_1_46: y_46 >= 1
 c_1_47: y_44 + y_47 >= 1
 c_1_48: y_28 + y_48 >= 1
 c_1_49: y_49 >= 1
Bounds
 Constant = 1
Binaries
 y_0 y_1 y_2 y_3 y_4 y_5 y_6 y_7 y_8 y_9 y_10 y_11 y_12 y_13 y_14 y_15 y_16
 y_17 y_18 y_19 y_20 y_21 y_22 y_23 y_24 y_25 y_26 y_27 y_28 y_29 y_30 y_31
 y_32 y_33 y_34 y_35 y_36 y_37 y_38 y_39 y_40 y_41 y_42 y_43 y_44 y_45 y_46
 y_47 y_48 y_49
End
